7 7 4 7 4 6 6 5 8 4 10 1 2 3 -1 
7 4 -1 -1 5 8 9 6 0 2 7 4 -1 5 -1 
0 4 -1 4 1 4 1 3 7 7 5 6 10 1 -1 
10 10 6 8 6 0 8 0 0 3 -1 7 6 9 -1 
6 3 7 7 6 9 6 -1 1 8 1 7 7 8 -1 
1 -1 1 1 2 2 1 8 5 10 5 8 4 2 -1 
3 2 9 2 5 10 6 4 8 1 5 1 3 2 -1 
0 5 6 8 5 3 0 10 3 8 2 9 -1 8 -1 
7 2 10 9 -1 9 6 7 0 5 10 4 7 4 -1 
1 3 -1 9 4 0 10 7 2 6 0 9 1 2 -1 
0 6 10 7 4 2 0 1 4 3 10 9 5 7 -1 
7 4 5 8 4 8 -1 8 8 3 6 6 10 6 -1 
10 8 -1 0 7 2 8 2 8 3 7 3 5 9 -1 
6 3 4 -1 4 6 1 9 7 10 7 10 3 0 -1 
5 10 8 9 9 6 4 8 -1 -1 3 6 3 9 -1 
